100
3439
89 114
9 86
62 162
19 186
84 40
63 19
1 39
22 29
26 11
94 93
57 188
14 194
97 156
74 114
9 114
22 63
60 37
77 120
48 172
94 126
1 83
63 172
65 183
54 112
12 30
83 30
5 80
36 49
74 165
86 173
78 178
16 115
100 124
78 124
86 153
30 131
70 117
86 38
86 171
55 16
68 51
1 145
83 145
51 101
13 43
74 57
70 26
72 150
85 185
24 69
86 10
96 98
56 48
36 123
97 134
81 153
12 23
31 140
4 186
32 27
25 195
57 134
10 117
15 175
24 145
76 147
65 25
21 170
29 72
39 158
20 137
10 141
27 192
52 77
68 73
1 74
24 11
47 119
67 72
17 168
26 152
69 135
51 149
51 80
49 83
28 182
52 148
26 103
15 84
50 71
23 164
68 138
78 136
59 169
70 103
90 20
6 96
72 103
52 135
27 175
